Solution in this episode: [460, 357, 494, 153, 222, 272, 188, 442, 86, 17, 426, 374, 52, 136, 477, 255, 120, 306, 392, 289, 409, 34, 69, 238, 324, 102, 341, 204, 171, 0, 462, 359, 496, 156, 469, 367, 470, 474, 223, 274, 190, 445, 368, 502, 229, 233, 373, 87, 20, 235, 427, 378, 163, 277, 165, 53, 138, 478, 259, 504, 280, 192, 380, 95, 509, 168, 121, 308, 98, 283, 99, 394, 292, 449, 431, 384, 287, 411, 36, 261, 387, 71, 240, 196, 27, 61, 452, 390, 326, 104, 342, 208, 30, 200, 398, 146, 434, 173, 3, 33, 299, 484, 211, 63, 401, 437, 67, 203, 487, 265, 126, 417, 490, 453, 440, 76, 316, 81, 213, 420, 456, 82, 147, 329, 43, 215, 422, 150, 180, 247, 302, 333, 129, 303, 45, 219, 404, 112, 7, 405, 346, 251, 267, 48, 269, 10, 253, 318, 349, 353, 320, 355, 183, 185, 335, 339, 132, 135, 115, 117, 13, 16]
